7 52 46 94 70 56 73 69 29 81 12 86 45 60 84 10 82 22 50 72 78 27 68 63 16 38 28 2 76 6 91 87 41 89 55 1 18 64 95 36 79 77 74 99 75 34 21 3 39 97 48 13 83 4 49 17 33 32 92 11 51 66 9 35 53 40 59 61 67 31 15 26 0 44 8 96 23 25 47 30 37 54 85 43 14 20 88 58 24 5 42 62 65 93 19 98 90 57 71 80 

